proyfinal/src/viki/013/experimentInOfficeAgust.take6.output/651c46e5-be02-44d4-9e46-e7e55d18d93c.als.out
Reading from standard input... Use '--help' for help.
============================[ Problem Statistics ]=============================
|                                                                             |
|  Number of variables:         87638                                         |
|  Number of clauses:          161767                                         |
|  Parse time:                   0.03 s                                       |
|                                                                             |
============================[ Search Statistics ]==============================
| Conflicts |          ORIGINAL         |          LEARNT          | Progress |
|           |    Vars  Clauses Literals |    Limit  Clauses Lit/Cl |          |
===============================================================================
|       100 |   62871   107220   267271 |    39314      100     10 | 28.261 % |
|       250 |   62871   107220   267271 |    43245      250     12 | 28.261 % |
|       475 |   62871   107220   267271 |    47569      475     36 | 28.261 % |
|       812 |   62871   107220   267271 |    52326      812     42 | 28.261 % |
|      1318 |   62867   107204   267227 |    57559     1266     43 | 28.265 % |
|      2077 |   62855   107156   267095 |    63315     1953     64 | 28.279 % |
|      3216 |   62855   107156   267095 |    69647     3092     81 | 28.279 % |
|      4924 |   62854   107112   267005 |    76611     4795     77 | 28.280 % |
|      7486 |   62788   106803   266311 |    84273     6237     73 | 28.355 % |
|     11330 |   62771   106735   266151 |    92700    10079     85 | 28.375 % |
===============================================================================
restarts              : 59
conflicts             : 13218          (8090 /sec)
decisions             : 50781          (0.00 % random) (31081 /sec)
propagations          : 16582352       (10149443 /sec)
conflict literals     : 1151721        (47.80 % deleted)
Memory used           : 28.17 MB
CPU time              : 1.63382 s

INDETERMINATE
